(declare-const X String)
; $sPatternTablet = '/(Tablet|iPad|iPod)/';
(assert (not (str.in.re X (re.++ (str.to.re "sPatternTablet = '/") (re.union (str.to.re "Tablet") (str.to.re "iPad") (str.to.re "iPod")) (str.to.re "/';\x0a")))))
; ^[A-Za-z0-9](\.[\w\-]|[\w\-][\w\-])(\.[\w\-]|[\w\-]?[\w\-]){0,30}[\w\-]?@[A-Za-z0-9\-]{3,63}\.[a-zA-Z]{2,6}$
(assert (str.in.re X (re.++ (re.union (re.range "A" "Z") (re.range "a" "z") (re.range "0" "9")) (re.union (re.++ (str.to.re ".") (re.union (str.to.re "-") (re.range "0" "9") (re.range "A" "Z") (re.range "a" "z") (str.to.re "_"))) (re.++ (re.union (str.to.re "-") (re.range "0" "9") (re.range "A" "Z") (re.range "a" "z") (str.to.re "_")) (re.union (str.to.re "-") (re.range "0" "9") (re.range "A" "Z") (re.range "a" "z") (str.to.re "_")))) ((_ re.loop 0 30) (re.union (re.++ (str.to.re ".") (re.union (str.to.re "-") (re.range "0" "9") (re.range "A" "Z") (re.range "a" "z") (str.to.re "_"))) (re.++ (re.opt (re.union (str.to.re "-") (re.range "0" "9") (re.range "A" "Z") (re.range "a" "z") (str.to.re "_"))) (re.union (str.to.re "-") (re.range "0" "9") (re.range "A" "Z") (re.range "a" "z") (str.to.re "_"))))) (re.opt (re.union (str.to.re "-") (re.range "0" "9") (re.range "A" "Z") (re.range "a" "z") (str.to.re "_"))) (str.to.re "@") ((_ re.loop 3 63) (re.union (re.range "A" "Z") (re.range "a" "z") (re.range "0" "9") (str.to.re "-"))) (str.to.re ".") ((_ re.loop 2 6) (re.union (re.range "a" "z") (re.range "A" "Z"))) (str.to.re "\x0a"))))
; ^([a-zA-Z0-9\-]{2,80})$
(assert (str.in.re X (re.++ ((_ re.loop 2 80) (re.union (re.range "a" "z") (re.range "A" "Z") (re.range "0" "9") (str.to.re "-"))) (str.to.re "\x0a"))))
(check-sat)
